python/teste/teste45
4 3
0 10 2 1 1 4
0 3 1 9 2 1
1 6 0 7 2 4
2 8 1 9 0 6
